Gurobi Optimizer version 9.1.2 build v9.1.2rc0 (linux64)
Thread count: 36 physical cores, 72 logical processors, using up to 32 threads
Optimize a model with 12 rows, 57 columns and 590 nonzeros
Model fingerprint: 0xf32eec78
Model has 47 quadratic constraints
Coefficient statistics:
  Matrix range     [2e-05, 3e+00]
  QMatrix range    [1e+00, 1e+00]
  QLMatrix range   [1e+00, 1e+00]
  Objective range  [8e-03, 7e-01]
  Bounds range     [1e+00, 1e+00]
  RHS range        [1e+00, 1e+00]
Presolve removed 9 rows and 0 columns

Continuous model is non-convex -- solving as a MIP.

Presolve removed 9 rows and 0 columns
Presolve time: 0.00s
Presolved: 189 rows, 57 columns, 443 nonzeros
Presolved model has 47 bilinear constraint(s)
Variable types: 57 continuous, 0 integer (0 binary)

Root relaxation: objective -1.743721e+00, 44 iterations, 0.00 seconds

    Nodes    |    Current Node    |     Objective Bounds      |     Work
 Expl Unexpl |  Obj  Depth IntInf | Incumbent    BestBd   Gap | It/Node Time

     0     0   -1.74372    0   38          -   -1.74372      -     -    0s
H    0     0                       0.6147548   -1.74372   384%     -    0s
     0     0   -1.64739    0    1    0.61475   -1.64739   368%     -    0s
H    0     0                      -1.6450460   -1.64739  0.14%     -    0s
     0     0     cutoff    0        -1.64505   -1.64505  0.00%     -    0s

Cutting planes:
  RLT: 25
  BQP: 3

Explored 1 nodes (76 simplex iterations) in 0.01 seconds
Thread count was 32 (of 72 available processors)

Solution count 2: -1.64505 0.614755 
No other solutions better than -1.64505

Optimal solution found (tolerance 1.00e-04)
Best objective -1.645045978473e+00, best bound -1.645045978473e+00, gap 0.0000%

User-callback calls 78, time in user-callback 0.00 sec
Gurobi Optimizer version 9.1.2 build v9.1.2rc0 (linux64)
Thread count: 36 physical cores, 72 logical processors, using up to 32 threads
Optimize a model with 24 rows, 120 columns and 2480 nonzeros
Model fingerprint: 0xc0df57b7
Model has 100 quadratic constraints
Coefficient statistics:
  Matrix range     [8e-06, 4e+00]
  QMatrix range    [1e+00, 1e+00]
  QLMatrix range   [1e+00, 1e+00]
  Objective range  [6e-03, 1e+00]
  Bounds range     [1e+00, 1e+00]
  RHS range        [1e+00, 1e+00]
Presolve removed 17 rows and 0 columns

Continuous model is non-convex -- solving as a MIP.

Presolve removed 17 rows and 0 columns
Presolve time: 0.00s
Presolved: 407 rows, 120 columns, 1232 nonzeros
Presolved model has 100 bilinear constraint(s)
Variable types: 120 continuous, 0 integer (0 binary)

Root relaxation: objective -8.272789e+00, 126 iterations, 0.00 seconds

    Nodes    |    Current Node    |     Objective Bounds      |     Work
 Expl Unexpl |  Obj  Depth IntInf | Incumbent    BestBd   Gap | It/Node Time

     0     0   -8.27279    0   84          -   -8.27279      -     -    0s
H    0     0                       1.6888422   -8.27279   590%     -    0s
     0     0   -5.82034    0  100    1.68884   -5.82034   445%     -    0s
H    0     0                       1.4487885   -5.82034   502%     -    0s
     0     0   -5.81184    0  100    1.44879   -5.81184   501%     -    0s
     0     0   -5.07307    0   90    1.44879   -5.07307   450%     -    0s
H    0     0                       0.0590666   -5.07307  8689%     -    0s
     0     0   -5.00220    0   90    0.05907   -5.00220  8569%     -    0s
     0     0   -4.83040    0   90    0.05907   -4.83040  8278%     -    0s
H    0     0                      -0.0541002   -4.83040  8829%     -    0s
     0     0   -4.80341    0   90   -0.05410   -4.80341  8779%     -    0s
     0     0   -4.73845    0   90   -0.05410   -4.73845  8659%     -    0s
     0     0   -4.73433    0   90   -0.05410   -4.73433  8651%     -    0s
     0     0   -4.72088    0   90   -0.05410   -4.72088  8626%     -    0s
H    0     0                      -0.1588789   -4.72088  2871%     -    0s
     0     0   -4.71454    0   90   -0.15888   -4.71454  2867%     -    0s
     0     0   -4.70841    0   90   -0.15888   -4.70841  2864%     -    0s
H    0     0                      -0.1926397   -4.70841  2344%     -    0s
     0     0   -4.70821    0   90   -0.19264   -4.70821  2344%     -    0s
     0     0   -4.70570    0   90   -0.19264   -4.70570  2343%     -    0s
H    0     0                      -1.6945635   -4.70570   178%     -    0s
H    0     0                      -2.1751871   -4.70570   116%     -    0s
H    0     0                      -2.1828110   -4.70570   116%     -    0s
     0     2   -4.70570    0   90   -2.18281   -4.70570   116%     -    0s
*  890   958              19      -3.8997157   -4.11941  5.63%  28.6    0s

Cutting planes:
  RLT: 79
  BQP: 11
  PSD: 14

Explored 1535 nodes (29065 simplex iterations) in 0.51 seconds
Thread count was 32 (of 72 available processors)

Solution count 10: -3.89972 -2.18281 -2.17519 ... 1.68884
No other solutions better than -3.89972

Optimal solution found (tolerance 1.00e-04)
Best objective -3.899715710704e+00, best bound -3.899715710704e+00, gap 0.0000%

User-callback calls 3326, time in user-callback 0.00 sec



objective value: -3.8997157107043625
objective bound: -3.8997157107043625
x_opt: [0.0, 0.9999999999999999, 1.0, 0.45126240317751437, 1.0, 9.452887691357992e-18, 0.0744091173948266, 0.0, 0.17893850255691718, 1.0, 0.0, 0.002619817970732466, 1.0, 1.0, 1.0, 2.879912020664621e-18, 0.0, 0.0, 0.0, 0.0]
GUROBI solution time: 0.511915922164917




